problems/csplib-prob056/sonet-models/noch/O2/lingeling/model_2_1-s3ring03-solution000001.solution
language Essence 1.3

letting network be
        mset({1, 3, 5, 10, 13}, {2, 3, 8, 9, 11}, {2, 3, 8, 9, 11}, {2, 3, 8, 9, 11}, {3, 4, 7, 9, 12}, {5, 7},
             {6, 7, 8, 9, 13})
$ Here is a simple "visualisation" for the value above.
$  1  3  5 10 13
$  2  3  8  9 11
$  2  3  8  9 11
$  2  3  8  9 11
$  3  4  7  9 12
$  5  7
$  6  7  8  9 13

